40 21
88 41
39 97
99 31
11 151
79 15
19 33
26 59
55 77
77 39
65 52
23 194
7 189
3 25
61 36
11 122
29 39
1 135
18 173
24 39
21 12
36 63
87 59
22 158
95 23
1 105
9 185
19 71
49 48
36 20
87 41
22 8
16 128
2 116
21 173
7 53
43 6
12 102
20 16
72 13
34 82
10 55
1 186
50 105
15 89
9 60
10 146
46 12
66 74
63 2
